data;


param d:= 100;
param r:=5;
param p:=0.740000;
param M:=1000;
param U:=
         1         1        1.227469e+00
         2         1       -2.627980e-01
         3         1       -4.595387e-01
         4         1        5.802303e-01
         5         1        6.638233e-01
         6         1       -1.443329e+00
         7         1        8.445353e-01
         8         1       -1.461080e+00
         9         1       -2.964387e-01
        10         1        1.372294e-02
        11         1        1.391388e-01
        12         1       -1.492205e+00
        13         1       -6.483742e-01
        14         1       -8.633434e-01
        15         1       -1.113357e+00
        16         1        1.912236e+00
        17         1        7.420035e-01
        18         1       -1.926570e+00
        19         1       -1.872542e+00
        20         1       -1.199848e+00
        21         1        4.751785e-01
        22         1        2.552840e-01
        23         1        5.615772e-01
        24         1        3.029009e-01
        25         1       -8.712866e-01
        26         1        4.684519e-01
        27         1       -9.678825e-01
        28         1       -8.514872e-01
        29         1       -3.197398e-01
        30         1       -1.016027e+00
        31         1        5.447214e-01
        32         1       -1.890418e-01
        33         1        1.006551e+00
        34         1        1.148975e+00
        35         1        5.553878e-01
        36         1        1.720761e+00
        37         1        6.013696e-01
        38         1        5.346385e-01
        39         1        7.983648e-01
        40         1        8.451248e-01
        41         1        2.440447e-01
        42         1        1.427261e+00
        43         1        6.429103e-01
        44         1       -9.769546e-02
        45         1        9.251512e-01
        46         1        4.171656e-01
        47         1        4.090275e-01
        48         1       -9.773793e-01
        49         1       -1.087321e+00
        50         1       -1.048002e+00
        51         1       -4.870722e-01
        52         1       -1.188462e+00
        53         1        5.646059e-01
        54         1        1.666886e+00
        55         1        1.228230e+00
        56         1       -1.858750e+00
        57         1        2.548672e-01
        58         1        8.581733e-01
        59         1        2.734690e-01
        60         1       -3.708168e-01
        61         1       -1.477085e-01
        62         1       -6.214120e-03
        63         1       -1.604639e+00
        64         1        1.054974e-01
        65         1       -1.006691e+00
        66         1        9.667010e-01
        67         1       -3.851293e-01
        68         1        1.327822e+00
        69         1        4.463390e-01
        70         1        1.164522e+00
        71         1       -1.152218e+00
        72         1       -1.697666e+00
        73         1        1.054199e+00
        74         1       -4.300189e-01
        75         1        1.622589e+00
        76         1       -6.782815e-01
        77         1        8.970448e-01
        78         1        1.718874e+00
        79         1       -7.261016e-02
        80         1        6.433199e-01
        81         1       -9.012443e-01
        82         1       -2.228610e-02
        83         1       -5.115478e-01
        84         1       -4.074664e-01
        85         1        3.122112e-01
        86         1       -8.642595e-01
        87         1       -5.742839e-01
        88         1        1.220194e+00
        89         1       -1.184510e+00
        90         1        3.057806e-02
        91         1       -1.434021e+00
        92         1       -5.332149e-01
        93         1       -1.585990e+00
        94         1       -8.260984e-01
        95         1       -1.570466e-01
        96         1       -3.073829e-01
        97         1       -1.258933e+00
        98         1       -4.247886e-02
        99         1        2.140137e+00
       100         1       -3.094626e-01
         1         2       -8.856889e-01
         2         2        7.458705e-01
         3         2        2.187505e-01
         4         2       -1.721287e+00
         5         2        1.168350e+00
         6         2        1.222028e+00
         7         2        1.792482e+00
         8         2       -6.416178e-01
         9         2       -4.065311e-01
        10         2        3.153090e-01
        11         2        4.406099e-01
        12         2       -1.066082e+00
        13         2        5.944543e-01
        14         2       -1.005305e+00
        15         2        1.326947e+00
        16         2       -1.591830e+00
        17         2       -1.659129e+00
        18         2       -6.423331e-01
        19         2       -9.270407e-01
        20         2        5.134253e-02
        21         2        3.610798e-01
        22         2        1.523110e-01
        23         2       -4.943677e-01
        24         2       -1.815570e-02
        25         2       -8.352860e-01
        26         2        1.263338e-01
        27         2        1.439708e+00
        28         2        2.012913e-01
        29         2        1.111601e+00
        30         2        9.019430e-02
        31         2        1.351942e+00
        32         2        6.554679e-01
        33         2       -3.017964e-01
        34         2        7.897753e-01
        35         2       -4.962696e-01
        36         2        1.008475e+00
        37         2        1.302012e+00
        38         2        9.239044e-01
        39         2        1.820312e-01
        40         2        1.642435e+00
        41         2        3.677417e-01
        42         2       -1.725181e+00
        43         2       -9.751512e-01
        44         2       -6.199839e-01
        45         2        5.247921e-01
        46         2       -1.168085e+00
        47         2       -1.886976e-01
        48         2       -2.491594e-01
        49         2        2.398180e-01
        50         2       -9.553246e-01
        51         2        8.500172e-01
        52         2        2.046033e+00
        53         2       -4.991497e-01
        54         2       -3.223059e-02
        55         2        1.171799e+00
        56         2       -1.668946e-01
        57         2        2.594619e-01
        58         2       -9.282686e-01
        59         2        5.564156e-01
        60         2        5.142319e-01
        61         2        4.465194e-01
        62         2       -5.541228e-01
        63         2       -6.573645e-02
        64         2       -8.090201e-01
        65         2        2.939890e-01
        66         2        4.245777e-01
        67         2       -9.203694e-01
        68         2        3.723282e-01
        69         2        2.551829e-01
        70         2        4.813833e-01
        71         2       -1.143230e+00
        72         2        9.913527e-01
        73         2        1.127755e-01
        74         2        1.340326e+00
        75         2        7.515162e-01
        76         2       -3.429575e-01
        77         2       -7.409775e-01
        78         2       -2.540883e-01
        79         2        6.560083e-01
        80         2       -8.883254e-01
        81         2        1.972124e+00
        82         2       -3.931902e-01
        83         2       -8.257080e-01
        84         2        6.078232e-01
        85         2        2.343776e+00
        86         2       -9.133075e-01
        87         2        2.292344e-01
        88         2        2.780313e-01
        89         2        3.703586e-01
        90         2       -2.887447e-01
        91         2        1.562570e+00
        92         2        7.882722e-01
        93         2       -3.692999e-02
        94         2        1.164575e+00
        95         2        1.017978e+00
        96         2       -1.092931e+00
        97         2       -5.085056e-01
        98         2       -1.199011e+00
        99         2        5.956101e-01
       100         2       -5.448753e-04
         1         3       -1.264526e-01
         2         3        2.454284e-01
         3         3       -6.731061e-01
         4         3        1.184131e+00
         5         3        2.445772e-01
         6         3       -7.034371e-01
         7         3        9.805251e-02
         8         3       -1.137980e-01
         9         3       -6.723531e-01
        10         3       -1.768994e-01
        11         3       -7.975136e-01
        12         3       -3.643753e-01
        13         3       -6.976353e-01
        14         3       -1.090407e+00
        15         3        4.780844e-01
        16         3       -1.345027e+00
        17         3       -1.012208e+00
        18         3        5.545614e-01
        19         3       -7.773310e-01
        20         3       -7.415612e-01
        21         3        5.289166e-01
        22         3       -1.510793e+00
        23         3       -5.001847e-01
        24         3       -1.708745e+00
        25         3        3.055531e-01
        26         3       -1.464135e+00
        27         3        2.991735e-01
        28         3        1.277958e+00
        29         3        8.392473e-01
        30         3        1.139452e+00
        31         3        4.700351e-02
        32         3        2.554195e-01
        33         3       -5.546745e-02
        34         3       -3.124920e-02
        35         3        1.369570e+00
        36         3        7.319279e-01
        37         3       -7.717075e-01
        38         3        5.020167e-01
        39         3       -1.997216e+00
        40         3        5.296746e-01
        41         3       -2.965466e-01
        42         3        1.975689e-01
        43         3        5.416872e-02
        44         3       -4.077199e-01
        45         3        1.235831e+00
        46         3       -1.189272e-01
        47         3        5.924652e-01
        48         3        1.654235e+00
        49         3       -3.005700e-01
        50         3       -2.125847e+00
        51         3        1.510371e+00
        52         3        1.121894e+00
        53         3        7.806726e-01
        54         3       -2.861011e+00
        55         3       -3.288884e-01
        56         3       -8.906487e-01
        57         3        1.204757e+00
        58         3       -1.791366e+00
        59         3        1.282021e+00
        60         3       -9.060492e-01
        61         3       -3.708972e-01
        62         3       -2.908036e+00
        63         3       -1.491591e+00
        64         3       -9.345452e-02
        65         3       -1.838543e+00
        66         3        2.451025e-02
        67         3       -3.606103e-01
        68         3        4.604132e-01
        69         3        1.140115e+00
        70         3        4.450126e-01
        71         3       -6.491279e-01
        72         3       -6.683429e-01
        73         3       -3.508704e-01
        74         3       -3.460237e-01
        75         3       -1.851519e-01
        76         3        4.953593e-01
        77         3       -1.237941e+00
        78         3        4.939087e-01
        79         3        7.953646e-01
        80         3        5.008921e-01
        81         3        1.047585e+00
        82         3        1.939612e+00
        83         3       -1.084888e+00
        84         3        7.822763e-01
        85         3        2.788672e-01
        86         3       -1.710584e-01
        87         3       -4.387120e-01
        88         3       -7.923695e-01
        89         3        2.352936e-01
        90         3       -1.688048e+00
        91         3        3.017086e-01
        92         3        2.061390e+00
        93         3        1.234945e+00
        94         3       -3.735229e-01
        95         3       -5.102572e-01
        96         3       -1.723909e+00
        97         3        6.202299e-01
        98         3       -4.599263e-01
        99         3        5.368854e-02
       100         3        1.203834e-01
         1         4        2.099176e-01
         2         4       -1.916732e-01
         3         4        2.699712e-01
         4         4       -7.287107e-02
         5         4       -1.472277e-01
         6         4        8.508426e-01
         7         4       -5.487690e-01
         8         4       -4.852919e-01
         9         4       -2.130998e-01
        10         4        2.747980e-01
        11         4        7.921621e-01
        12         4       -7.770281e-01
        13         4       -9.820631e-01
        14         4        9.825224e-01
        15         4       -1.540154e-03
        16         4        2.829252e-01
        17         4        2.309056e-01
        18         4       -2.830388e+00
        19         4        3.253232e-01
        20         4        1.023867e+00
        21         4        1.125764e+00
        22         4        3.746889e-01
        23         4        3.152902e-01
        24         4        4.777166e-01
        25         4       -1.267736e+00
        26         4        2.517062e+00
        27         4        6.252594e-01
        28         4        8.917275e-01
        29         4        4.241573e-01
        30         4       -2.719332e-01
        31         4       -1.452991e+00
        32         4        7.317898e-01
        33         4        1.108619e+00
        34         4        7.303929e-02
        35         4       -2.705714e-01
        36         4       -1.824495e+00
        37         4        1.413790e+00
        38         4        1.222853e+00
        39         4       -3.893803e-01
        40         4        2.516850e+00
        41         4       -3.923176e-01
        42         4        1.093050e+00
        43         4       -1.911702e+00
        44         4        7.403910e-01
        45         4        7.895790e-01
        46         4       -1.258413e+00
        47         4       -2.264780e+00
        48         4       -7.201688e-01
        49         4        6.122894e-01
        50         4       -9.003923e-01
        51         4        1.085183e+00
        52         4       -7.590499e-01
        53         4        1.576879e+00
        54         4       -8.070167e-01
        55         4       -3.544374e-01
        56         4        9.515475e-01
        57         4       -1.842567e-01
        58         4       -1.121082e+00
        59         4       -9.323189e-01
        60         4        1.273683e+00
        61         4        1.830894e+00
        62         4       -1.280890e+00
        63         4       -7.636964e-02
        64         4       -1.993680e+00
        65         4       -1.571073e+00
        66         4        1.318592e+00
        67         4       -8.474969e-01
        68         4       -8.856210e-01
        69         4        6.977538e-01
        70         4        2.590111e-01
        71         4       -1.218063e+00
        72         4       -1.478649e+00
        73         4        2.155324e-01
        74         4       -7.921648e-01
        75         4        1.972751e-01
        76         4        1.262094e+00
        77         4       -1.396120e-02
        78         4       -2.593912e-01
        79         4        7.140476e-01
        80         4       -1.104048e+00
        81         4        9.389483e-01
        82         4       -1.357924e+00
        83         4       -1.316112e+00
        84         4        3.902652e-01
        85         4        1.812380e-01
        86         4       -3.143915e-01
        87         4        1.005209e-01
        88         4       -3.887824e-01
        89         4        6.981067e-02
        90         4       -3.717845e+00
        91         4       -3.068007e-01
        92         4        1.612727e+00
        93         4        9.363208e-01
        94         4       -3.167013e-01
        95         4        1.030250e+00
        96         4        9.310858e-01
        97         4        9.571199e-01
        98         4        8.742353e-01
        99         4       -9.722401e-01
       100         4        1.335662e+00
         1         5        4.578896e-01
         2         5        9.399480e-01
         3         5        1.237363e+00
         4         5       -3.353313e-01
         5         5        1.366402e+00
         6         5       -7.384885e-02
         7         5       -9.694855e-01
         8         5        3.685763e-01
         9         5       -5.844947e-01
        10         5       -1.670795e-02
        11         5       -7.591420e-01
        12         5       -4.581640e-01
        13         5       -4.432439e-01
        14         5        3.480637e-01
        15         5       -2.886496e-01
        16         5       -7.969818e-01
        17         5       -1.640281e-02
        18         5       -6.882803e-01
        19         5       -7.142690e-01
        20         5       -1.620456e+00
        21         5        1.021960e+00
        22         5        1.137522e+00
        23         5        3.550473e-01
        24         5       -1.030402e+00
        25         5       -2.653200e-01
        26         5       -4.371813e-01
        27         5        1.011184e+00
        28         5        1.235713e+00
        29         5        1.800318e+00
        30         5       -9.581184e-01
        31         5        7.614545e-01
        32         5       -1.617910e+00
        33         5        8.157439e-01
        34         5        2.559931e-01
        35         5        1.048741e+00
        36         5        8.420266e-01
        37         5        5.495544e-01
        38         5       -9.834508e-01
        39         5       -5.824645e-01
        40         5        1.313169e+00
        41         5       -2.203860e-01
        42         5        1.004363e+00
        43         5       -1.175597e+00
        44         5       -5.301420e-01
        45         5        1.643037e+00
        46         5       -1.957287e+00
        47         5        1.107643e+00
        48         5       -1.243785e+00
        49         5       -2.719715e-02
        50         5       -1.432051e+00
        51         5        1.714041e+00
        52         5       -1.231287e+00
        53         5       -7.514789e-01
        54         5        4.425038e-02
        55         5       -9.019898e-01
        56         5        3.437386e-01
        57         5        2.997331e-01
        58         5       -4.641229e-01
        59         5       -6.881685e-01
        60         5        1.534166e+00
        61         5       -1.328076e+00
        62         5        2.012200e-01
        63         5        4.681813e-01
        64         5       -3.224968e-01
        65         5       -6.843375e-01
        66         5       -1.002457e+00
        67         5        2.085880e-01
        68         5       -4.049357e-01
        69         5        3.193057e-01
        70         5        1.291287e+00
        71         5       -2.443675e+00
        72         5       -3.457976e-01
        73         5        8.265346e-01
        74         5       -1.979693e+00
        75         5       -9.134669e-01
        76         5        5.115721e-01
        77         5        2.626682e-01
        78         5       -1.026596e+00
        79         5        1.221502e+00
        80         5       -8.090011e-01
        81         5        2.727861e-01
        82         5        9.205814e-01
        83         5       -1.271905e-01
        84         5       -7.841963e-01
        85         5       -3.397745e-01
        86         5        2.983795e-01
        87         5       -9.960579e-02
        88         5        6.291281e-01
        89         5        8.285884e-01
        90         5        2.880365e-01
        91         5        1.086886e+00
        92         5       -7.611017e-01
        93         5        7.969699e-01
        94         5       -5.330347e-02
        95         5       -2.392340e-01
        96         5        4.891520e-01
        97         5        7.938642e-01
        98         5        2.207842e+00
        99         5       -9.555372e-01
       100         5       -1.095525e+00
;

param theta:=
    1       -4.284819e-01
    2        8.048742e-01
    3        2.118474e+00
    4       -6.534514e-01
    5        7.675860e-01
;
param X_true:=
    1       -1.290580e+00
    2        2.081071e+00
    3       -2.791524e-01
    4        6.631438e-01
    5        2.318500e+00
    6       -5.003044e-01
    7        9.009721e-01
    8        4.678239e-01
    9       -1.934777e+00
   10       -3.189795e-01
   11       -2.494938e+00
   12       -8.333114e-01
   13       -4.191816e-01
   14       -3.123177e+00
   15        2.338221e+00
   16       -5.749112e+00
   17       -3.962296e+00
   18        2.804047e+00
   19       -2.351758e+00
   20       -2.928970e+00
   21        1.255446e+00
   22       -2.558910e+00
   23       -1.629802e+00
   24       -4.866131e+00
   25        9.714821e-01
   26       -5.180381e+00
   27        2.574937e+00
   28        3.598498e+00
   29        3.915219e+00
   30        2.363998e+00
   31        2.489337e+00
   32       -5.689827e-01
   33       -8.897403e-01
   34        2.270927e-01
   35        3.245360e+00
   36        3.465594e+00
   37       -1.345327e+00
   38        2.492608e-02
   39       -4.620103e+00
   40        1.446674e+00
   41       -3.475043e-01
   42       -1.524894e+00
   43       -5.993451e-01
   44       -2.211491e+00
   45        3.388087e+00
   46       -2.050447e+00
   47        3.258942e+00
   48        3.236731e+00
   49       -4.015073e-01
   50       -5.333794e+00
   51        4.697057e+00
   52        4.082643e+00
   53       -5.984337e-01
   54       -6.239698e+00
   55       -7.418795e-01
   56       -1.583634e+00
   57        3.001093e+00
   58       -4.533448e+00
   59        3.128016e+00
   60       -1.000818e+00
   61       -2.580255e+00
   62       -5.612272e+00
   63       -2.117674e+00
   64        1.612496e-01
   65       -2.724953e+00
   66       -1.652309e+00
   67       -6.255889e-01
   68        9.746964e-01
   69        2.220561e+00
   70        1.653732e+00
   71       -2.881280e+00
   72        8.101743e-01
   73       -6.114326e-01
   74       -4.717325e-01
   75       -1.311830e+00
   76        6.310613e-01
   77       -3.391648e+00
   78       -5.110596e-01
   79        2.716140e+00
   80        1.704907e-01
   81        3.786839e+00
   82        5.395366e+00
   83       -1.981954e+00
   84        1.464546e+00
   85        1.964371e+00
   86       -2.929264e-01
   87       -6.401917e-01
   88       -1.241635e+00
   89        1.893477e+00
   90       -1.171485e+00
   91        3.547020e+00
   92        3.591668e+00
   93        3.265753e+00
   94        6.655673e-01
   95       -1.050921e+00
   96       -4.632119e+00
   97        1.426850e+00
   98       -7.962412e-01
   99       -4.230425e-01
  100       -1.326851e+00
;
param X:=
    1        4.629950e-02
    2       -1.970056e-02
    3       -2.791524e-01
    4       -3.674300e-01
    5        3.923215e-01
    6       -6.147387e-01
    7       -1.379692e+00
    8        3.193633e-01
    9        4.614005e-01
   10       -6.280561e-01
   11        1.120130e+00
   12       -8.333114e-01
   13       -6.816961e-01
   14        3.537841e-01
   15        7.166540e-01
   16       -2.959962e-02
   17       -3.962296e+00
   18        8.249414e-01
   19        1.256440e+00
   20       -2.928970e+00
   21        4.035727e-01
   22       -2.558910e+00
   23       -3.956090e-01
   24       -1.267262e+00
   25        9.714821e-01
   26        1.326063e-01
   27        2.574937e+00
   28        3.598498e+00
   29        5.321528e-01
   30       -4.085488e-01
   31       -1.044257e+00
   32       -5.689827e-01
   33       -1.611733e+00
   34        1.520986e-01
   35        5.175039e-01
   36        9.518235e-01
   37       -1.345327e+00
   38       -5.250388e-01
   39       -1.454875e-01
   40       -4.735802e-01
   41        9.958400e-01
   42       -2.404483e-01
   43        1.050001e+00
   44       -9.458950e-01
   45        1.306517e+00
   46        2.757892e-01
   47        3.258942e+00
   48       -8.759671e-01
   49        6.234861e-01
   50        2.602607e+00
   51       -2.833083e-01
   52        1.618842e+00
   53       -1.251618e+00
   54        6.262870e-01
   55        4.124199e-02
   56       -1.443861e+00
   57        4.990411e-01
   58       -1.172034e+00
   59        2.811067e-01
   60       -1.000818e+00
   61       -1.345922e+00
   62       -1.392061e+00
   63        8.038244e-01
   64        7.912615e-01
   65       -1.864468e+00
   66       -1.133831e+00
   67       -1.441280e+00
   68        9.746964e-01
   69       -3.033410e+00
   70        1.653732e+00
   71       -4.031303e-01
   72        1.317253e+00
   73       -6.114326e-01
   74        4.834367e-03
   75       -1.311830e+00
   76       -2.213377e+00
   77       -3.391648e+00
   78       -5.110596e-01
   79        9.105745e-01
   80        9.904565e-02
   81        3.786839e+00
   82       -1.748492e-01
   83       -1.981954e+00
   84        9.983502e-02
   85        1.964371e+00
   86        1.265172e-01
   87        2.034885e+00
   88        7.988346e-02
   89        1.893477e+00
   90        1.086368e+00
   91       -2.704309e-01
   92       -6.134007e-01
   93        3.265753e+00
   94        5.523711e-01
   95       -1.050921e+00
   96       -1.767657e-02
   97       -1.748431e-01
   98       -1.096711e-01
   99       -4.230425e-01
  100       -1.326851e+00
;
param outliervec:=
    1    1
    2    1
    3    0
    4    1
    5    1
    6    1
    7    1
    8    1
    9    1
   10    1
   11    1
   12    0
   13    1
   14    1
   15    1
   16    1
   17    0
   18    1
   19    1
   20    0
   21    1
   22    0
   23    1
   24    1
   25    0
   26    1
   27    0
   28    0
   29    1
   30    1
   31    1
   32    0
   33    1
   34    1
   35    1
   36    1
   37    0
   38    1
   39    1
   40    1
   41    1
   42    1
   43    1
   44    1
   45    1
   46    1
   47    0
   48    1
   49    1
   50    1
   51    1
   52    1
   53    1
   54    1
   55    1
   56    1
   57    1
   58    1
   59    1
   60    0
   61    1
   62    1
   63    1
   64    1
   65    1
   66    1
   67    1
   68    0
   69    1
   70    0
   71    1
   72    1
   73    0
   74    1
   75    0
   76    1
   77    0
   78    0
   79    1
   80    1
   81    0
   82    1
   83    0
   84    1
   85    0
   86    1
   87    1
   88    1
   89    0
   90    1
   91    1
   92    1
   93    0
   94    1
   95    0
   96    1
   97    1
   98    1
   99    0
  100    0
;